CPXPARAM_Read_DataCheck                          1
Found incumbent of value 0.000000 after 0.00 sec. (0.03 ticks)
Tried aggregator 1 time.
MIP Presolve eliminated 5 rows and 0 columns.
MIP Presolve modified 1 coefficients.
Reduced MIP has 128 rows, 1010 columns, and 4534 nonzeros.
Reduced MIP has 1010 binaries, 0 generals, 0 SOSs, and 0 indicators.
Presolve time = 0.00 sec. (1.93 ticks)
Probing time = 0.02 sec. (2.27 ticks)
Tried aggregator 1 time.
Reduced MIP has 128 rows, 1010 columns, and 4534 nonzeros.
Reduced MIP has 1010 binaries, 0 generals, 0 SOSs, and 0 indicators.
Presolve time = 0.00 sec. (2.13 ticks)
Probing time = 0.00 sec. (2.23 ticks)
Clique table members: 3327.
MIP emphasis: balance optimality and feasibility.
MIP search method: dynamic search.
Parallel mode: deterministic, using up to 4 threads.
Root relaxation solution time = 0.00 sec. (2.42 ticks)

        Nodes                                         Cuts/
   Node  Left     Objective  IInf  Best Integer    Best Bound    ItCnt     Gap

*     0+    0                            0.0000     6276.0000              --- 
*     0+    0                          230.0000     6276.0000              --- 
      0     0     3117.5700    10      230.0000     3117.5700      252     --- 
      0     0     3053.4875    31      230.0000     Cuts: 150      283     --- 
*     0+    0                         1594.0000     3053.4875            91.56%
      0     0     2784.8413   135     1594.0000     Cuts: 147      445   74.71%
      0     0     2562.3577   238     1594.0000     Cuts: 148      591   60.75%
      0     0     2271.3024   317     1594.0000     Cuts: 142      776   42.49%
*     0+    0                         1696.0000     2271.3024            33.92%
      0     0     2182.4596   352     1696.0000     Cuts: 143      866   28.68%
*     0+    0                         1706.0000     2182.4596            27.93%
      0     0        cutoff           1706.0000     1706.0000     1255    0.00%
Elapsed time = 0.17 sec. (122.23 ticks, tree = 0.01 MB, solutions = 5)

GUB cover cuts applied:  7
Clique cuts applied:  573
Cover cuts applied:  24
Implied bound cuts applied:  3
Mixed integer rounding cuts applied:  12
Zero-half cuts applied:  1

Root node processing (before b&c):
  Real time             =    0.17 sec. (122.33 ticks)
Parallel b&c, 4 threads:
  Real time             =    0.00 sec. (0.00 ticks)
  Sync time (average)   =    0.00 sec.
  Wait time (average)   =    0.00 sec.
                          ------------
Total (root+branch&cut) =    0.17 sec. (122.33 ticks)
